30 50

1 15 146
2 25 163
3 17 299
4 2 299
5 22 277
6 10 256
7 6 67
8 5 243
9 1 13
10 11 56
11 27 279
12 19 96
13 23 293
14 11 18
15 18 29
16 27 172
17 19 96
18 22 23
19 19 224
20 12 246
21 22 256
22 23 99
23 20 242
24 20 26
25 12 173
26 15 193
27 29 26
28 18 282
29 14 173
30 13 55
